9181677795435444915013,13,1,2,01,12,1,2,013,2,1,2,09,1,1,2,05,14,1,2,014,14,1,2,02,13,1,2,010,11,1,2,04,10,1,2,07,3,1,2,011,13,1,2,012,10,1,2,07,8,1,2,09,10,1,2,012,9,1,2,02,9,1,2,012,7,1,2,014,8,1,2,013,15,1,2,07,14,1,2,011,14,1,2,01,7,1,2,04,4,1,2,014,10,1,2,012,5,1,2,013,1,1,2,09,4,1,2,010,5,1,2,01,10,1,2,07,1,1,2,01,13,1,2,08,7,1,2,06,9,1,2,014,7,1,2,013,10,1,2,08,4,1,2,03,8,1,2,015,2,1,2,06,9,1,2,01,10,1,2,02,9,1,2,04,6,1,2,02,10,1,2,01,13,1,2,07,12,1,2,012,6,1,2,06,14,1,2,01,6,1,2,012,10,1,2,01,11,1,2,0